SDVRP instances/p03/p03_110_tsplib0_splitx10_0.vrp
NAME:.\SDVRP_splitx10_
BEST_KNOWN: 0
COMMENT: 0
DIMENSION: 347
CAPACITY: 2000
EDGE_WEIGHT_FORMAT: FUNCTION
EDGE_WEIGHT_TYPE: EXACT_2D
NODE_COORD_SECTION
1 0.00000 0.00000
2 6 14
3 6 14
4 6 14
5 6 14
6 6 14
7 0 -18
8 0 -18
9 0 -18
10 0 -18
11 0 -18
12 20 10
13 20 10
14 20 10
15 20 -15
16 20 -15
17 -20 -5
18 -20 -5
19 -20 -5
20 -20 -5
21 -20 -5
22 -10 -5
23 -10 -5
24 -10 -5
25 -10 -5
26 -10 -5
27 -15 15
28 -25 8
29 -25 8
30 20 25
31 20 25
32 20 25
33 -5 25
34 -15 30
35 -15 30
36 -15 30
37 -15 30
38 15 0
39 15 0
40 15 0
41 15 0
42 15 0
43 -5 -10
44 -20 -25
45 -20 -25
46 -5 -30
47 -5 -30
48 -5 -30
49 -25 -15
50 -25 -15
51 -25 -15
52 -25 -15
53 -30 -5
54 -30 -5
55 -15 5
56 -15 5
57 -20 25
58 -20 25
59 -20 25
60 -20 25
61 -20 25
62 10 30
63 10 30
64 10 -15
65 10 -15
66 10 -25
67 10 -25
68 10 -25
69 20 -30
70 20 -30
71 20 -30
72 30 0
73 30 0
74 30 -15
75 30 -15
76 30 -15
77 30 -15
78 10 -5
79 10 -5
80 10 -5
81 10 -5
82 0 5
83 6 2
84 6 2
85 6 2
86 6 2
87 29 7
88 29 7
89 5 25
90 5 25
91 -4 17
92 -4 17
93 -4 17
94 -4 17
95 -4 17
96 0 34
97 0 34
98 0 34
99 0 34
100 18 17
101 18 17
102 18 17
103 18 17
104 30 20
105 30 20
106 30 20
107 28 30
108 28 30
109 28 30
110 28 30
111 28 30
112 -33 25
113 -15 -15
114 -15 -15
115 -15 -15
116 -15 -15
117 -30 -30
118 25 -23
119 5 -10
120 5 -10
121 5 -10
122 5 -10
123 7 -28
124 7 -28
125 7 -28
126 -11 -23
127 -11 -23
128 -12 -32
129 -12 -32
130 -12 -32
131 -24 -21
132 -24 -21
133 -24 -21
134 -29 3
135 -29 3
136 -29 3
137 -29 3
138 -29 3
139 -33 13
140 -33 13
141 -33 13
142 -33 13
143 -27 21
144 -22 17
145 -22 17
146 -22 17
147 -22 17
148 -22 17
149 -29 33
150 -29 33
151 -29 33
152 -29 33
153 -29 33
154 12 12
155 12 12
156 12 12
157 14 23
158 14 23
159 14 23
160 -8 8
161 -8 8
162 -8 8
163 2 -4
164 2 -4
165 22 -6
166 22 -6
167 22 -6
168 22 -6
169 22 -6
170 28 -12
171 28 -12
172 28 -12
173 28 -12
174 18 -23
175 18 -23
176 18 -23
177 18 -23
178 -3 -23
179 -3 -23
180 -3 -23
181 -3 -23
182 1 -9
183 1 -9
184 1 -9
185 -14 -11
186 -14 -11
187 -14 -11
188 -14 -11
189 -14 -11
190 -18 -1
191 -18 -1
192 -18 -1
193 -18 -1
194 -23 -11
195 -23 -11
196 -23 -11
197 -23 -11
198 -23 -11
199 -11 23
200 -11 23
201 -11 23
202 -8 34
203 -8 34
204 -8 34
205 -8 34
206 -20 42
207 -20 42
208 -20 42
209 -20 42
210 27 42
211 27 42
212 27 42
213 27 42
214 14 38
215 32 -30
216 32 -30
217 32 -30
218 32 -30
219 32 -30
220 21 4
221 21 4
222 2 12
223 2 12
224 2 12
225 2 12
226 2 12
227 2 12
228 2 21
229 2 21
230 2 21
231 2 21
232 2 21
233 22 33
234 22 33
235 22 33
236 22 33
237 22 33
238 22 33
239 12 -19
240 12 -19
241 12 -19
242 12 -19
243 12 -19
244 9 -18
245 9 -18
246 9 -18
247 9 -18
248 9 -18
249 11 -22
250 11 -22
251 11 -22
252 11 -22
253 11 -22
254 11 -22
255 14 -24
256 14 7
257 14 7
258 14 7
259 14 7
260 18 8
261 18 8
262 26 17
263 26 17
264 26 17
265 26 17
266 22 13
267 22 13
268 21 2
269 21 2
270 21 2
271 21 2
272 20 19
273 20 19
274 20 19
275 -20 12
276 -20 12
277 -20 12
278 -20 12
279 -21 2
280 -21 2
281 -21 2
282 -24 -4
283 -24 -4
284 -24 -4
285 -19 -13
286 -19 -13
287 -19 -13
288 -19 -13
289 -19 -13
290 -19 -13
291 -31 -17
292 -31 -17
293 -31 -17
294 -31 -17
295 -7 -17
296 -7 -17
297 -7 -17
298 -7 -17
299 -7 -17
300 -7 -17
301 -9 17
302 -9 17
303 -9 17
304 -9 17
305 -9 0
306 -9 0
307 -9 0
308 -9 0
309 -9 0
310 -4 32
311 -4 32
312 -20 -16
313 -20 -16
314 -20 -16
315 -20 -16
316 -13 -13
317 -13 -13
318 -17 -11
319 -17 -11
320 -17 -11
321 -9 -8
322 -9 -8
323 -9 -8
324 -9 -8
325 -9 -8
326 -10 -11
327 -10 -11
328 -10 -11
329 -13 -8
330 -13 -8
331 -13 -8
332 -13 -8
333 -10 -14
334 -10 -14
335 -10 -14
336 -10 -14
337 -16 -14
338 -16 -14
339 -16 -14
340 -16 -14
341 -16 -14
342 -15 -9
343 -15 -9
344 -15 -9
345 -15 -9
346 -17 -17
347 -17 -17
DEMAND_SECTION
1 0
2 100
3 20
4 20
5 20
6 10
7 20
8 20
9 20
10 20
11 10
12 20
13 20
14 20
15 100
16 20
17 100
18 20
19 20
20 20
21 20
22 100
23 20
24 20
25 20
26 10
27 100
28 20
29 10
30 20
31 20
32 10
33 20
34 100
35 20
36 20
37 20
38 20
39 20
40 20
41 20
42 10
43 100
44 100
45 10
46 100
47 20
48 20
49 20
50 20
51 20
52 10
53 20
54 10
55 100
56 10
57 100
58 20
59 20
60 20
61 10
62 100
63 10
64 20
65 10
66 100
67 20
68 10
69 100
70 20
71 10
72 100
73 20
74 100
75 20
76 20
77 20
78 100
79 20
80 20
81 10
82 20
83 100
84 20
85 20
86 10
87 20
88 20
89 20
90 10
91 100
92 20
93 20
94 20
95 10
96 100
97 20
98 20
99 20
100 100
101 20
102 20
103 20
104 20
105 20
106 10
107 100
108 20
109 20
110 20
111 10
112 100
113 100
114 20
115 20
116 20
117 100
118 100
119 100
120 20
121 20
122 20
123 20
124 20
125 10
126 20
127 10
128 100
129 20
130 10
131 100
132 20
133 20
134 100
135 20
136 20
137 20
138 10
139 20
140 20
141 20
142 10
143 100
144 20
145 20
146 20
147 20
148 10
149 100
150 20
151 20
152 20
153 10
154 100
155 20
156 10
157 100
158 20
159 10
160 100
161 20
162 10
163 20
164 10
165 100
166 20
167 20
168 20
169 20
170 100
171 20
172 20
173 10
174 100
175 20
176 20
177 10
178 20
179 20
180 20
181 10
182 100
183 20
184 20
185 20
186 20
187 20
188 20
189 10
190 20
191 20
192 20
193 20
194 100
195 20
196 20
197 20
198 10
199 20
200 20
201 20
202 20
203 20
204 20
205 10
206 20
207 20
208 20
209 10
210 20
211 20
212 20
213 20
214 100
215 100
216 20
217 20
218 20
219 10
220 20
221 10
222 100
223 20
224 20
225 20
226 20
227 10
228 100
229 20
230 20
231 20
232 10
233 100
234 20
235 20
236 20
237 20
238 10
239 100
240 20
241 20
242 20
243 20
244 100
245 20
246 20
247 20
248 10
249 100
250 20
251 20
252 20
253 20
254 10
255 20
256 20
257 20
258 20
259 10
260 100
261 20
262 100
263 20
264 20
265 10
266 100
267 20
268 100
269 20
270 20
271 20
272 100
273 20
274 10
275 20
276 20
277 20
278 10
279 100
280 20
281 20
282 100
283 20
284 10
285 100
286 20
287 20
288 20
289 20
290 10
291 100
292 20
293 20
294 20
295 100
296 20
297 20
298 20
299 20
300 10
301 100
302 20
303 20
304 20
305 100
306 20
307 20
308 20
309 10
310 20
311 20
312 100
313 20
314 20
315 20
316 100
317 20
318 20
319 20
320 10
321 100
322 20
323 20
324 20
325 20
326 100
327 20
328 20
329 100
330 20
331 20
332 20
333 100
334 20
335 20
336 10
337 20
338 20
339 20
340 20
341 10
342 100
343 20
344 20
345 10
346 20
347 10
DEPOT_SECTION
1
-1
EOF