SDVRP instances/p03/p03_110_tsplib0_splitx10_0.sol
346 -54 55 279 280 278 192 191 190 189 18 20 17 19 16 282 283 281 52 53 135 133 136 134 137 27 28 138 140 139 141 142 111 150 149 148 151 152 208 207 205 206 34 33 35 36 56 57 58 59 60 143 144 145 146 147 276 274 275 277 26 161 -79 78 77 80 14 15 171 172 170 169 74 73 75 76 117 215 214 216 217 218 69 70 68 175 176 174 173 254 123 124 122 65 67 66 248 253 249 252 250 251 242 239 240 238 241 247 243 246 245 244 64 63 120 119 -81 225 223 224 226 222 221 2 1 3 5 4 229 228 230 231 227 88 89 156 157 158 31 30 29 272 273 271 99 102 101 100 87 86 72 71 166 164 167 168 165 270 269 267 268 220 219 260 259 255 256 258 257 41 38 39 37 40 82 83 -85 84 153 155 154 13 11 12 265 266 264 263 262 261 103 105 104 107 109 106 110 108 233 232 234 236 235 237 212 209 211 210 213 62 61 96 98 95 97 309 310 201 204 203 202 32 200 199 198 302 301 300 303 94 92 91 93 90 159 160 -121 118 10 9 7 6 8 180 177 178 179 47 46 45 128 129 127 125 126 44 43 132 131 130 116 293 291 292 290 50 49 48 51 194 196 193 197 195 344 342 343 341 328 330 329 331 23 22 24 21 25 304 305 308 306 307 -162 163 181 183 182 42 298 297 295 296 294 299 335 332 333 334 316 315 115 112 113 114 338 339 337 340 336 346 345 311 313 312 314 285 284 287 286 288 289 318 319 317 187 186 184 185 188 325 326 327 320 321 323 324 322 0 





OBJ=
772.078
BEST_KNOWN=
0.000